c description: Perfect Matching Principle on 
c generator: CNFgen (0.9.0)
c copyright: (C) 2012-2020 Massimo Lauria <massimo.lauria@uniroma1.it>
c url: https://massimolauria.net/cnfgen
c
p cnf 120 957
-1 -2 0
-1 -3 0
-1 -4 0
-1 -5 0
-1 -6 0
-1 -7 0
-1 -8 0
-1 -9 0
-2 -3 0
-2 -4 0
-2 -5 0
-2 -6 0
-2 -7 0
-2 -8 0
-2 -9 0
-3 -4 0
-3 -5 0
-3 -6 0
-3 -7 0
-3 -8 0
-3 -9 0
-4 -5 0
-4 -6 0
-4 -7 0
-4 -8 0
-4 -9 0
-5 -6 0
-5 -7 0
-5 -8 0
-5 -9 0
-6 -7 0
-6 -8 0
-6 -9 0
-7 -8 0
-7 -9 0
-8 -9 0
1 2 3 4 5 6 7 8 9 0
-10 -11 0
-10 -12 0
-10 -13 0
-10 -14 0
-10 -15 0
-10 -16 0
-10 -17 0
-10 -18 0
-11 -12 0
-11 -13 0
-11 -14 0
-11 -15 0
-11 -16 0
-11 -17 0
-11 -18 0
-12 -13 0
-12 -14 0
-12 -15 0
-12 -16 0
-12 -17 0
-12 -18 0
-13 -14 0
-13 -15 0
-13 -16 0
-13 -17 0
-13 -18 0
-14 -15 0
-14 -16 0
-14 -17 0
-14 -18 0
-15 -16 0
-15 -17 0
-15 -18 0
-16 -17 0
-16 -18 0
-17 -18 0
10 11 12 13 14 15 16 17 18 0
-19 -20 0
-19 -21 0
-19 -22 0
-20 -21 0
-20 -22 0
-21 -22 0
19 20 21 22 0
-1 -23 0
-1 -24 0
-1 -25 0
-1 -26 0
-1 -27 0
-1 -28 0
-1 -29 0
-1 -30 0
-23 -24 0
-23 -25 0
-23 -26 0
-23 -27 0
-23 -28 0
-23 -29 0
-23 -30 0
-24 -25 0
-24 -26 0
-24 -27 0
-24 -28 0
-24 -29 0
-24 -30 0
-25 -26 0
-25 -27 0
-25 -28 0
-25 -29 0
-25 -30 0
-26 -27 0
-26 -28 0
-26 -29 0
-26 -30 0
-27 -28 0
-27 -29 0
-27 -30 0
-28 -29 0
-28 -30 0
-29 -30 0
1 23 24 25 26 27 28 29 30 0
-19 -31 0
-19 -32 0
-19 -33 0
-31 -32 0
-31 -33 0
-32 -33 0
19 31 32 33 0
-10 -34 0
-10 -35 0
-10 -36 0
-10 -37 0
-10 -38 0
-10 -39 0
-10 -40 0
-10 -41 0
-10 -42 0
-10 -43 0
-10 -44 0
-34 -35 0
-34 -36 0
-34 -37 0
-34 -38 0
-34 -39 0
-34 -40 0
-34 -41 0
-34 -42 0
-34 -43 0
-34 -44 0
-35 -36 0
-35 -37 0
-35 -38 0
-35 -39 0
-35 -40 0
-35 -41 0
-35 -42 0
-35 -43 0
-35 -44 0
-36 -37 0
-36 -38 0
-36 -39 0
-36 -40 0
-36 -41 0
-36 -42 0
-36 -43 0
-36 -44 0
-37 -38 0
-37 -39 0
-37 -40 0
-37 -41 0
-37 -42 0
-37 -43 0
-37 -44 0
-38 -39 0
-38 -40 0
-38 -41 0
-38 -42 0
-38 -43 0
-38 -44 0
-39 -40 0
-39 -41 0
-39 -42 0
-39 -43 0
-39 -44 0
-40 -41 0
-40 -42 0
-40 -43 0
-40 -44 0
-41 -42 0
-41 -43 0
-41 -44 0
-42 -43 0
-42 -44 0
-43 -44 0
10 34 35 36 37 38 39 40 41 42 43 44 0
-23 -45 0
-23 -46 0
-23 -47 0
-45 -46 0
-45 -47 0
-46 -47 0
23 45 46 47 0
-2 -24 0
-2 -48 0
-2 -49 0
-2 -50 0
-2 -51 0
-2 -52 0
-2 -53 0
-24 -48 0
-24 -49 0
-24 -50 0
-24 -51 0
-24 -52 0
-24 -53 0
-48 -49 0
-48 -50 0
-48 -51 0
-48 -52 0
-48 -53 0
-49 -50 0
-49 -51 0
-49 -52 0
-49 -53 0
-50 -51 0
-50 -52 0
-50 -53 0
-51 -52 0
-51 -53 0
-52 -53 0
2 24 48 49 50 51 52 53 0
-31 -34 0
-31 -54 0
-31 -55 0
-31 -56 0
-31 -57 0
-31 -58 0
-31 -59 0
-34 -54 0
-34 -55 0
-34 -56 0
-34 -57 0
-34 -58 0
-34 -59 0
-54 -55 0
-54 -56 0
-54 -57 0
-54 -58 0
-54 -59 0
-55 -56 0
-55 -57 0
-55 -58 0
-55 -59 0
-56 -57 0
-56 -58 0
-56 -59 0
-57 -58 0
-57 -59 0
-58 -59 0
31 34 54 55 56 57 58 59 0
-60 -61 0
-60 -62 0
-60 -63 0
-60 -64 0
-61 -62 0
-61 -63 0
-61 -64 0
-62 -63 0
-62 -64 0
-63 -64 0
60 61 62 63 64 0
-35 -65 0
-35 -66 0
-35 -67 0
-35 -68 0
-35 -69 0
-35 -70 0
-65 -66 0
-65 -67 0
-65 -68 0
-65 -69 0
-65 -70 0
-66 -67 0
-66 -68 0
-66 -69 0
-66 -70 0
-67 -68 0
-67 -69 0
-67 -70 0
-68 -69 0
-68 -70 0
-69 -70 0
35 65 66 67 68 69 70 0
-36 -71 0
-36 -72 0
-36 -73 0
-36 -74 0
-71 -72 0
-71 -73 0
-71 -74 0
-72 -73 0
-72 -74 0
-73 -74 0
36 71 72 73 74 0
-3 -25 0
-3 -37 0
-3 -45 0
-3 -48 0
-3 -60 0
-3 -75 0
-3 -76 0
-3 -77 0
-25 -37 0
-25 -45 0
-25 -48 0
-25 -60 0
-25 -75 0
-25 -76 0
-25 -77 0
-37 -45 0
-37 -48 0
-37 -60 0
-37 -75 0
-37 -76 0
-37 -77 0
-45 -48 0
-45 -60 0
-45 -75 0
-45 -76 0
-45 -77 0
-48 -60 0
-48 -75 0
-48 -76 0
-48 -77 0
-60 -75 0
-60 -76 0
-60 -77 0
-75 -76 0
-75 -77 0
-76 -77 0
3 25 37 45 48 60 75 76 77 0
-26 -38 0
-26 -49 0
-26 -78 0
-26 -79 0
-38 -49 0
-38 -78 0
-38 -79 0
-49 -78 0
-49 -79 0
-78 -79 0
26 38 49 78 79 0
-20 -32 0
-20 -54 0
-20 -61 0
-20 -78 0
-20 -80 0
-20 -81 0
-20 -82 0
-20 -83 0
-20 -84 0
-32 -54 0
-32 -61 0
-32 -78 0
-32 -80 0
-32 -81 0
-32 -82 0
-32 -83 0
-32 -84 0
-54 -61 0
-54 -78 0
-54 -80 0
-54 -81 0
-54 -82 0
-54 -83 0
-54 -84 0
-61 -78 0
-61 -80 0
-61 -81 0
-61 -82 0
-61 -83 0
-61 -84 0
-78 -80 0
-78 -81 0
-78 -82 0
-78 -83 0
-78 -84 0
-80 -81 0
-80 -82 0
-80 -83 0
-80 -84 0
-81 -82 0
-81 -83 0
-81 -84 0
-82 -83 0
-82 -84 0
-83 -84 0
20 32 54 61 78 80 81 82 83 84 0
-4 -11 0
-4 -55 0
-4 -85 0
-4 -86 0
-4 -87 0
-11 -55 0
-11 -85 0
-11 -86 0
-11 -87 0
-55 -85 0
-55 -86 0
-55 -87 0
-85 -86 0
-85 -87 0
-86 -87 0
4 11 55 85 86 87 0
-5 -12 0
-5 -56 0
-5 -62 0
-5 -65 0
-5 -88 0
-5 -89 0
-5 -90 0
-5 -91 0
-5 -92 0
-12 -56 0
-12 -62 0
-12 -65 0
-12 -88 0
-12 -89 0
-12 -90 0
-12 -91 0
-12 -92 0
-56 -62 0
-56 -65 0
-56 -88 0
-56 -89 0
-56 -90 0
-56 -91 0
-56 -92 0
-62 -65 0
-62 -88 0
-62 -89 0
-62 -90 0
-62 -91 0
-62 -92 0
-65 -88 0
-65 -89 0
-65 -90 0
-65 -91 0
-65 -92 0
-88 -89 0
-88 -90 0
-88 -91 0
-88 -92 0
-89 -90 0
-89 -91 0
-89 -92 0
-90 -91 0
-90 -92 0
-91 -92 0
5 12 56 62 65 88 89 90 91 92 0
-27 -66 0
-27 -71 0
-27 -88 0
-27 -93 0
-27 -94 0
-66 -71 0
-66 -88 0
-66 -93 0
-66 -94 0
-71 -88 0
-71 -93 0
-71 -94 0
-88 -93 0
-88 -94 0
-93 -94 0
27 66 71 88 93 94 0
-21 -39 0
-21 -50 0
-21 -67 0
-21 -75 0
-21 -95 0
-21 -96 0
-21 -97 0
-21 -98 0
-21 -99 0
-21 -100 0
-21 -101 0
-39 -50 0
-39 -67 0
-39 -75 0
-39 -95 0
-39 -96 0
-39 -97 0
-39 -98 0
-39 -99 0
-39 -100 0
-39 -101 0
-50 -67 0
-50 -75 0
-50 -95 0
-50 -96 0
-50 -97 0
-50 -98 0
-50 -99 0
-50 -100 0
-50 -101 0
-67 -75 0
-67 -95 0
-67 -96 0
-67 -97 0
-67 -98 0
-67 -99 0
-67 -100 0
-67 -101 0
-75 -95 0
-75 -96 0
-75 -97 0
-75 -98 0
-75 -99 0
-75 -100 0
-75 -101 0
-95 -96 0
-95 -97 0
-95 -98 0
-95 -99 0
-95 -100 0
-95 -101 0
-96 -97 0
-96 -98 0
-96 -99 0
-96 -100 0
-96 -101 0
-97 -98 0
-97 -99 0
-97 -100 0
-97 -101 0
-98 -99 0
-98 -100 0
-98 -101 0
-99 -100 0
-99 -101 0
-100 -101 0
21 39 50 67 75 95 96 97 98 99 100 101 0
-6 -46 0
-6 -51 0
-6 -68 0
-6 -95 0
-6 -102 0
-6 -103 0
-46 -51 0
-46 -68 0
-46 -95 0
-46 -102 0
-46 -103 0
-51 -68 0
-51 -95 0
-51 -102 0
-51 -103 0
-68 -95 0
-68 -102 0
-68 -103 0
-95 -102 0
-95 -103 0
-102 -103 0
6 46 51 68 95 102 103 0
-7 -72 0
-7 -80 0
-7 -89 0
-7 -102 0
-7 -104 0
-7 -105 0
-7 -106 0
-72 -80 0
-72 -89 0
-72 -102 0
-72 -104 0
-72 -105 0
-72 -106 0
-80 -89 0
-80 -102 0
-80 -104 0
-80 -105 0
-80 -106 0
-89 -102 0
-89 -104 0
-89 -105 0
-89 -106 0
-102 -104 0
-102 -105 0
-102 -106 0
-104 -105 0
-104 -106 0
-105 -106 0
7 72 80 89 102 104 105 106 0
-8 -13 0
-8 -81 0
-8 -107 0
-8 -108 0
-8 -109 0
-13 -81 0
-13 -107 0
-13 -108 0
-13 -109 0
-81 -107 0
-81 -108 0
-81 -109 0
-107 -108 0
-107 -109 0
-108 -109 0
8 13 81 107 108 109 0
-52 -63 0
-52 -73 0
-52 -82 0
-52 -90 0
-52 -96 0
-52 -107 0
-52 -110 0
-52 -111 0
-52 -112 0
-63 -73 0
-63 -82 0
-63 -90 0
-63 -96 0
-63 -107 0
-63 -110 0
-63 -111 0
-63 -112 0
-73 -82 0
-73 -90 0
-73 -96 0
-73 -107 0
-73 -110 0
-73 -111 0
-73 -112 0
-82 -90 0
-82 -96 0
-82 -107 0
-82 -110 0
-82 -111 0
-82 -112 0
-90 -96 0
-90 -107 0
-90 -110 0
-90 -111 0
-90 -112 0
-96 -107 0
-96 -110 0
-96 -111 0
-96 -112 0
-107 -110 0
-107 -111 0
-107 -112 0
-110 -111 0
-110 -112 0
-111 -112 0
52 63 73 82 90 96 107 110 111 112 0
-14 -40 0
-14 -57 0
-14 -64 0
-14 -69 0
-14 -91 0
-14 -97 0
-14 -104 0
-14 -108 0
-14 -113 0
-14 -114 0
-40 -57 0
-40 -64 0
-40 -69 0
-40 -91 0
-40 -97 0
-40 -104 0
-40 -108 0
-40 -113 0
-40 -114 0
-57 -64 0
-57 -69 0
-57 -91 0
-57 -97 0
-57 -104 0
-57 -108 0
-57 -113 0
-57 -114 0
-64 -69 0
-64 -91 0
-64 -97 0
-64 -104 0
-64 -108 0
-64 -113 0
-64 -114 0
-69 -91 0
-69 -97 0
-69 -104 0
-69 -108 0
-69 -113 0
-69 -114 0
-91 -97 0
-91 -104 0
-91 -108 0
-91 -113 0
-91 -114 0
-97 -104 0
-97 -108 0
-97 -113 0
-97 -114 0
-104 -108 0
-104 -113 0
-104 -114 0
-108 -113 0
-108 -114 0
-113 -114 0
14 40 57 64 69 91 97 104 108 113 114 0
-28 -58 0
-28 -70 0
-28 -85 0
-28 -92 0
-28 -93 0
-28 -98 0
-28 -109 0
-28 -110 0
-28 -115 0
-28 -116 0
-58 -70 0
-58 -85 0
-58 -92 0
-58 -93 0
-58 -98 0
-58 -109 0
-58 -110 0
-58 -115 0
-58 -116 0
-70 -85 0
-70 -92 0
-70 -93 0
-70 -98 0
-70 -109 0
-70 -110 0
-70 -115 0
-70 -116 0
-85 -92 0
-85 -93 0
-85 -98 0
-85 -109 0
-85 -110 0
-85 -115 0
-85 -116 0
-92 -93 0
-92 -98 0
-92 -109 0
-92 -110 0
-92 -115 0
-92 -116 0
-93 -98 0
-93 -109 0
-93 -110 0
-93 -115 0
-93 -116 0
-98 -109 0
-98 -110 0
-98 -115 0
-98 -116 0
-109 -110 0
-109 -115 0
-109 -116 0
-110 -115 0
-110 -116 0
-115 -116 0
28 58 70 85 92 93 98 109 110 115 116 0
-15 -29 0
-15 -33 0
-15 -41 0
-15 -76 0
-15 -79 0
-15 -103 0
-15 -113 0
-15 -117 0
-15 -118 0
-29 -33 0
-29 -41 0
-29 -76 0
-29 -79 0
-29 -103 0
-29 -113 0
-29 -117 0
-29 -118 0
-33 -41 0
-33 -76 0
-33 -79 0
-33 -103 0
-33 -113 0
-33 -117 0
-33 -118 0
-41 -76 0
-41 -79 0
-41 -103 0
-41 -113 0
-41 -117 0
-41 -118 0
-76 -79 0
-76 -103 0
-76 -113 0
-76 -117 0
-76 -118 0
-79 -103 0
-79 -113 0
-79 -117 0
-79 -118 0
-103 -113 0
-103 -117 0
-103 -118 0
-113 -117 0
-113 -118 0
-117 -118 0
15 29 33 41 76 79 103 113 117 118 0
-30 -59 0
-30 -94 0
-30 -105 0
-30 -115 0
-30 -119 0
-30 -120 0
-59 -94 0
-59 -105 0
-59 -115 0
-59 -119 0
-59 -120 0
-94 -105 0
-94 -115 0
-94 -119 0
-94 -120 0
-105 -115 0
-105 -119 0
-105 -120 0
-115 -119 0
-115 -120 0
-119 -120 0
30 59 94 105 115 119 120 0
-9 -16 0
-9 -22 0
-9 -42 0
-9 -53 0
-9 -86 0
-9 -99 0
-9 -111 0
-9 -114 0
-9 -119 0
-16 -22 0
-16 -42 0
-16 -53 0
-16 -86 0
-16 -99 0
-16 -111 0
-16 -114 0
-16 -119 0
-22 -42 0
-22 -53 0
-22 -86 0
-22 -99 0
-22 -111 0
-22 -114 0
-22 -119 0
-42 -53 0
-42 -86 0
-42 -99 0
-42 -111 0
-42 -114 0
-42 -119 0
-53 -86 0
-53 -99 0
-53 -111 0
-53 -114 0
-53 -119 0
-86 -99 0
-86 -111 0
-86 -114 0
-86 -119 0
-99 -111 0
-99 -114 0
-99 -119 0
-111 -114 0
-111 -119 0
-114 -119 0
9 16 22 42 53 86 99 111 114 119 0
-17 -43 0
-17 -47 0
-17 -74 0
-17 -77 0
-17 -83 0
-17 -87 0
-17 -100 0
-17 -106 0
-17 -112 0
-17 -117 0
-43 -47 0
-43 -74 0
-43 -77 0
-43 -83 0
-43 -87 0
-43 -100 0
-43 -106 0
-43 -112 0
-43 -117 0
-47 -74 0
-47 -77 0
-47 -83 0
-47 -87 0
-47 -100 0
-47 -106 0
-47 -112 0
-47 -117 0
-74 -77 0
-74 -83 0
-74 -87 0
-74 -100 0
-74 -106 0
-74 -112 0
-74 -117 0
-77 -83 0
-77 -87 0
-77 -100 0
-77 -106 0
-77 -112 0
-77 -117 0
-83 -87 0
-83 -100 0
-83 -106 0
-83 -112 0
-83 -117 0
-87 -100 0
-87 -106 0
-87 -112 0
-87 -117 0
-100 -106 0
-100 -112 0
-100 -117 0
-106 -112 0
-106 -117 0
-112 -117 0
17 43 47 74 77 83 87 100 106 112 117 0
-18 -44 0
-18 -84 0
-18 -101 0
-18 -116 0
-18 -118 0
-18 -120 0
-44 -84 0
-44 -101 0
-44 -116 0
-44 -118 0
-44 -120 0
-84 -101 0
-84 -116 0
-84 -118 0
-84 -120 0
-101 -116 0
-101 -118 0
-101 -120 0
-116 -118 0
-116 -120 0
-118 -120 0
18 44 84 101 116 118 120 0